Instance name : ber-n100-2
Authors       : Isaiah Reimer (isaiah.reimer@rideco.com). RideCo (rideco.com)
Date          : 2023-04-04
Reference     : Rideco PDPTW Solver
Solution
Route 1 : 20 29 32 82 47 79 70 36 40 42 97 9 90 59 92 43 86 93
Route 2 : 12 62 50 100 13 63 8 28 58 21 78 2 71 52 34 17 67 44 84 94
Route 3 : 31 15 81 65 46 1 37 96 51 19 87 30 69 80 33 16 66 83
Route 4 : 48 98 45 27 77 10 60 39 95 38 35 89 85 23 73 88
Route 5 : 18 4 25 75 68 24 3 54 74 53
Route 6 : 14 64 7 26 11 57 61 76 41 49 91 99 22 72 6 56 5 55
